c --- [ banner ] -------------------------------------------------------------
c 
c CaDiCaL Radically Simplified CDCL SAT Solver
c Copyright (c) 2016-2021 A. Biere, M. Fleury, N. Froleyks
c 
c Version 1.5.2 ca9bff05c11bde5eae4912f9932871d1527e61d8
c g++ (GCC) 9.3.0 -Wall -Wextra -O3 -DNDEBUG
c Thu Jul 28 23:42:48 EDT 2022 Linux gra-login3 3.10.0-1160.66.1.el7.x86_64 x86_64
c 
c --- [ limit ] --------------------------------------------------------------
c 
c setting conflict limit to 200000 conflicts (due to '200000')
c 
c --- [ parsing input ] ------------------------------------------------------
c 
c reading DIMACS file from '23.cubes269.adj'
c opening file to read '23.cubes269.adj'
c found 'p cnf 5320 914888' header
c parsed 914888 clauses in 7.29 seconds process time
c closing file '23.cubes269.adj'
c after reading 637829964 bytes 608.3 MB
c 
c --- [ options ] ------------------------------------------------------------
c 
c all options are set to their default value
c 
c --- [ solving ] ------------------------------------------------------------
c 
c time measured in process time since initialization
c 
c  seconds   reductions  redundant  irredundant
c          MB    restarts       trail      variables
c           level   conflicts       glue        remaining
c 
c *  7.29 628  0 0   0    0    0  0% 0 914847 2245 42%
c {  7.61 647  0 0   0    0    0  0% 0 914847 2245 42%
c i  8.25 684 1644 0   0   16   12 53% 8 914847 2241 42%
c i  9.73 706 980 0   0  111   94 40% 8 914847 2222 42%
c i  9.74 706 962 0   0  113   95 40% 8 914847 2214 42%
c i  9.77 706 914 0   0  119   96 39% 8 914847 2211 42%
c i  9.78 706 899 0   0  121   96 39% 8 914847 2203 41%
c i  9.78 706 892 0   0  122   96 39% 8 914847 2194 41%
c }  9.78 706 878 0   0  125   96 38% 7 914847 2087 39%
c 0  9.78 706 878 0   0  125   96 38% 7 914847 2087 39%
c 
c --- [ writing output ] -----------------------------------------------------
c 
c writing simplified CNF to DIMACS file 'simp/23.cubes269.adj.simp1'
c *  9.78 706 878 0   0  125   96 38% 7 914847 2087 39%
c opening file to write 'simp/23.cubes269.adj.simp1'
c writing 'p cnf 5320 1' header
c closing file 'simp/23.cubes269.adj.simp1'
c after writing 15 bytes 0.0 MB
c wrote 1 clauses in 0.00 seconds process time
c 
c --- [ writing extension ] --------------------------------------------------
c 
c writing extension stack to 'simp/23.cubes269.adj.ext1'
c opening file to write 'simp/23.cubes269.adj.ext1'
c closing file 'simp/23.cubes269.adj.ext1'
c after writing 0 bytes 0.0 MB
c wrote 0 witnesses in 0.00 seconds process time
c 
c --- [ result ] -------------------------------------------------------------
c 
s UNSATISFIABLE
c 
c --- [ run-time profiling ] -------------------------------------------------
c 
c process time taken by individual solving procedures
c (percentage relative to process time for solving)
c 
c         7.29  292.01% parse
c         2.49   99.98% search
c         2.17   87.16% unstable
c         0.32   12.82% lucky
c         0.00    0.00% simplify
c   =================================
c         2.49   25.50% solve
c 
c last line shows process time for solving
c (percentage relative to total process time)
c 
c --- [ statistics ] ---------------------------------------------------------
c 
c chronological:                85        68.00 %  of conflicts
c conflicts:                   125        50.10    per second
c decisions:                  1927       772.37    per second
c fixed:                       396         7.44 %  of all variables
c learned:                     114        91.20 %  per conflict
c learned_lits:               5179       100.00 %  learned literals
c minimized:                     0         0.00 %  learned literals
c shrunken:                    583        11.26 %  learned literals
c minishrunken:                686        13.25 %  learned literals
c propagations:              18432         0.01 M  per second
c subsumed:                     10         0.00 %  of all clauses
c 
c seconds are measured in process time for solving
c 
c --- [ resources ] ----------------------------------------------------------
c 
c total process time since initialization:         9.79    seconds
c total real time since initialization:           11.43    seconds
c maximum resident set size of process:          705.86    MB
c 
c --- [ shutting down ] ------------------------------------------------------
c 
c exit 20
WARNING! DIMACS header mismatch: wrong number of variables.
============================[ Problem Statistics ]=============================
|                                                                             |
|  Number of variables:             0                                         |
|  Number of clauses:               0                                         |
|  Parse time:                   0.00 s                                       |
|  Simplification time:          0.00 s                                       |
|                                                                             |
===============================================================================
Solved by simplification
database reductions   : 0
restarts              : 0
conflicts             : 0              (0 /sec)
decisions             : 0              (-nan % random) (0 /sec)
propagations          : 0              (0 /sec)
conflict literals     : 0              (-nan % deleted)
actual reward         : -nan
Memory used           : 5.00 MB
CPU time              : 0.001103 s

UNSATISFIABLE
